n = 50;
C = 6928;
w = [399,292,53,500,178,104,112,330,449,444,493,215,72,159,92,52,473,381,235,98,260,467,331,200,384,185,133,370,444,275,461,208,43,365,390,168,88,187,285,399,463,185,89,444,322,227,489,305,260,298];
p = [407,306,92,518,154,147,123,320,407,405,512,178,74,197,71,23,476,413,215,103,282,474,338,228,423,159,113,326,439,245,437,229,50,351,413,178,79,193,328,426,439,177,132,395,277,217,470,328,211,260];
